p cnf 7230 17
857 -1060 0
863 -1066 0
-863 -1064 1065 0
-857 -1058 1059 0
857 -1063 0
-857 -1061 1062 0
-1065 1066 0
-1059 1060 0
1064 -1066 0
-1062 1063 0
1061 -1063 0
1058 -1060 0
-863 -1067 1069 0
-1056 1057 0
1056 -1057 0
1067 -1069 0
863 -1069 0
